c Result of efficient AIG-to-CNF conversion using package CNF
p cnf 531 1932
-2 3 199 292 392 0
2 -392 0
2 -3 0
2 -292 0
2 -199 0
-3 4 131 -180 -184 0
-3 -4 -131 -180 -184 0
-3 4 131 180 184 0
-3 -4 -131 180 184 0
3 4 -131 0
3 -4 131 0
3 180 -184 0
3 -180 184 0
4 5 -78 0
-4 -5 0
-4 78 0
5 6 -43 63 65 0
-5 -63 0
-5 -65 0
-5 -6 0
-5 43 0
-6 505 506 7 23 0
-6 -505 -506 -7 23 0
6 -505 7 0
6 506 -7 0
6 -23 0
6 505 -506 0
-7 507 8 0
7 -507 0
7 -8 0
-8 508 9 0
8 -508 0
8 -9 0
-9 509 10 0
9 -509 0
9 -10 0
-10 510 11 0
10 -510 0
10 -11 0
-11 511 12 0
11 -511 0
11 -12 0
-12 512 13 0
12 -512 0
12 -13 0
-13 513 14 0
13 -513 0
13 -14 0
-14 514 515 516 15 0
14 -15 0
14 -516 0
14 -514 0
14 -515 0
-15 518 519 520 16 0
15 -16 0
15 -520 0
15 -518 0
15 -519 0
-16 517 17 0
16 -517 0
16 -17 0
-17 521 18 0
17 -521 0
17 -18 0
-18 522 19 0
18 -522 0
18 -19 0
-19 523 524 525 20 0
19 -20 0
19 -525 0
19 -523 0
19 -524 0
-20 526 21 0
20 -526 0
20 -21 0
-21 527 22 0
21 -527 0
21 -22 0
-22 528 529 530 0
22 -528 0
22 -530 0
22 -529 0
-23 24 25 28 35 0
23 -24 0
23 -35 0
23 -28 0
23 -25 0
24 -509 10 0
24 509 -10 0
-24 509 10 0
-24 -509 -10 0
-25 -503 -504 -26 0
-25 503 504 26 0
25 -503 26 0
25 504 -26 0
25 503 -504 0
-26 505 27 0
26 -505 0
26 -27 0
-27 506 7 0
27 -506 0
27 -7 0
-28 29 30 31 0
28 -31 0
28 -30 0
28 -29 0
29 -510 11 0
29 510 -11 0
-29 510 11 0
-29 -510 -11 0
30 -512 13 0
30 512 -13 0
-30 512 13 0
-30 -512 -13 0
-31 513 14 32 0
-31 -513 -14 32 -34 0
31 -14 34 0
31 -513 14 0
31 -32 0
31 513 -14 0
32 17 -15 0
32 -15 33 0
32 517 -15 0
-32 15 0
-32 -517 -17 -33 0
33 -518 -519 -520 0
-33 518 0
-33 519 0
-33 520 0
34 -514 -515 -516 -15 0
-34 516 0
-34 15 0
-34 514 0
-34 515 0
-35 36 39 41 42 0
35 -42 0
35 -41 0
35 -36 0
35 -39 0
36 -501 37 0
36 502 -37 0
36 501 -502 0
-36 -501 -502 -37 0
-36 501 502 37 0
-37 503 38 0
37 -503 0
37 -38 0
-38 504 26 0
38 -504 0
38 -26 0
39 -499 40 0
39 500 -40 0
39 499 -500 0
-39 -499 -500 -40 0
-39 499 500 40 0
-40 501 502 37 0
40 -37 0
40 -502 0
40 -501 0
41 -511 12 0
41 511 -12 0
-41 511 12 0
-41 -511 -12 0
-42 -507 -508 -9 0
-42 507 508 9 0
42 -507 9 0
42 508 -9 0
42 507 -508 0
-43 44 -45 56 0
-43 44 45 46 0
43 -44 0
43 -45 -56 0
43 45 -46 0
44 -526 21 0
44 526 -21 0
-44 526 21 0
-44 -526 -21 0
45 -527 22 0
45 527 -22 0
-45 527 22 0
-45 -527 -22 0
46 -47 -53 0
46 47 49 -50 0
-46 47 -49 0
-46 -47 53 0
-46 47 50 0
47 -528 48 0
47 528 -48 0
-47 528 48 0
-47 -528 -48 0
-48 529 530 0
48 -529 0
48 -530 0
49 527 -529 -530 0
-49 530 0
-49 529 0
-49 -527 0
50 -22 51 0
50 -22 -52 0
-50 22 0
-50 -51 52 0
51 529 -530 0
51 -529 530 0
-51 -529 -530 0
-51 529 530 0
52 -526 530 0
52 -525 -530 0
-52 526 530 0
-52 525 -530 0
53 51 -54 0
53 -51 -55 0
-53 -51 55 0
-53 51 54 0
54 -524 530 0
54 -523 -530 0
-54 524 530 0
-54 523 -530 0
55 -522 530 0
55 -521 -530 0
-55 522 530 0
-55 521 -530 0
56 47 -57 0
56 -47 -60 0
-56 -47 60 0
-56 47 57 0
57 51 -58 0
57 -51 -59 0
-57 -51 59 0
-57 51 58 0
58 -520 530 0
58 -519 -530 0
-58 520 530 0
-58 519 -530 0
59 -518 530 0
59 -517 -530 0
-59 518 530 0
-59 517 -530 0
60 51 -61 0
60 -51 -62 0
-60 -51 62 0
-60 51 61 0
61 -516 530 0
61 -515 -530 0
-61 516 530 0
-61 515 -530 0
62 -514 530 0
62 -513 -530 0
-62 514 530 0
-62 513 -530 0
-63 521 522 19 0
-63 -521 -522 -19 -64 0
63 -521 19 0
63 522 -19 0
63 521 -522 0
63 -521 64 0
64 -523 -524 -525 -20 0
-64 525 0
-64 20 0
-64 523 0
-64 524 0
65 -44 -45 73 0
65 -44 45 66 0
-65 44 0
-65 -45 -73 0
-65 45 -66 0
66 47 -67 0
66 -47 -70 0
-66 -47 70 0
-66 47 67 0
67 51 -68 0
67 -51 -69 0
-67 -51 69 0
-67 51 68 0
68 -512 530 0
68 -511 -530 0
-68 512 530 0
-68 511 -530 0
69 -510 530 0
69 -509 -530 0
-69 510 530 0
-69 509 -530 0
70 51 -71 0
70 -51 -72 0
-70 -51 72 0
-70 51 71 0
71 -508 530 0
71 -507 -530 0
-71 508 530 0
-71 507 -530 0
72 -506 530 0
72 -505 -530 0
-72 506 530 0
-72 505 -530 0
73 47 -74 0
73 -47 -77 0
-73 -47 77 0
-73 47 74 0
74 51 -75 0
74 -51 -76 0
-74 -51 76 0
-74 51 75 0
75 -504 530 0
75 -503 -530 0
-75 504 530 0
-75 503 -530 0
76 -502 530 0
76 -501 -530 0
-76 502 530 0
-76 501 -530 0
77 -499 -530 51 0
77 -500 530 51 0
-77 -51 0
-77 500 530 0
-77 499 -530 0
78 -79 -130 0
78 79 -112 0
-78 79 112 0
-78 -79 130 0
79 80 -82 110 0
-79 -80 0
-79 82 0
-79 -110 0
-80 81 35 0
80 -81 0
80 -35 0
81 -505 27 0
81 505 -27 0
-81 505 27 0
-81 -505 -27 0
82 -44 63 -96 0
82 44 63 -83 0
-82 -63 0
-82 -44 96 0
-82 44 83 0
83 45 -84 0
83 -45 -89 0
-83 -45 89 0
-83 45 84 0
84 -47 -86 0
84 47 -85 0
-84 47 85 0
-84 -47 86 0
-85 527 530 0
-85 526 529 0
-85 529 530 0
85 -527 -529 0
85 -526 -530 0
85 -529 -530 0
86 51 -87 0
86 -51 -88 0
-86 -51 88 0
-86 51 87 0
87 -525 530 0
87 -524 -530 0
-87 525 530 0
-87 524 -530 0
88 -523 530 0
88 -522 -530 0
-88 523 530 0
-88 522 -530 0
89 47 -90 0
89 -47 -93 0
-89 -47 93 0
-89 47 90 0
90 51 -91 0
90 -51 -92 0
-90 -51 92 0
-90 51 91 0
91 -521 530 0
91 -520 -530 0
-91 521 530 0
-91 520 -530 0
92 -519 530 0
92 -518 -530 0
-92 519 530 0
-92 518 -530 0
93 51 -94 0
93 -51 -95 0
-93 -51 95 0
-93 51 94 0
94 -517 530 0
94 -516 -530 0
-94 517 530 0
-94 516 -530 0
95 -515 530 0
95 -514 -530 0
-95 515 530 0
-95 514 -530 0
96 45 -97 0
96 -45 -104 0
-96 -45 104 0
-96 45 97 0
97 47 -98 0
97 -47 -101 0
-97 -47 101 0
-97 47 98 0
98 51 -99 0
98 -51 -100 0
-98 -51 100 0
-98 51 99 0
99 -513 530 0
99 -512 -530 0
-99 513 530 0
-99 512 -530 0
100 -511 530 0
100 -510 -530 0
-100 511 530 0
-100 510 -530 0
101 51 -102 0
101 -51 -103 0
-101 -51 103 0
-101 51 102 0
102 -509 530 0
102 -508 -530 0
-102 509 530 0
-102 508 -530 0
103 -507 530 0
103 -506 -530 0
-103 507 530 0
-103 506 -530 0
104 47 -105 0
104 -47 -108 0
-104 -47 108 0
-104 47 105 0
105 51 -106 0
105 -51 -107 0
-105 -51 107 0
-105 51 106 0
106 -505 530 0
106 -504 -530 0
-106 505 530 0
-106 504 -530 0
107 -503 530 0
107 -502 -530 0
-107 503 530 0
-107 502 -530 0
108 51 -109 0
108 -499 530 -51 0
-108 51 109 0
-108 499 -51 0
-108 -530 -51 0
109 -501 530 0
109 -500 -530 0
-109 501 530 0
-109 500 -530 0
-110 111 24 25 28 0
110 -111 0
110 -28 0
110 -25 0
110 -24 0
111 -506 7 0
111 506 -7 0
-111 506 7 0
-111 -506 -7 0
-112 492 113 0
-112 493 -113 0
112 -493 -113 0
112 -492 113 0
113 80 110 -114 0
-113 -80 0
-113 -110 0
-113 114 0
114 -44 63 -122 0
114 44 63 -115 0
-114 -63 0
-114 -44 122 0
-114 44 115 0
115 45 -116 0
115 -45 -119 0
115 45 -118 0
-115 -45 119 0
-115 45 116 118 0
116 -47 -117 0
-116 47 0
-116 117 0
117 51 -52 0
117 -51 -54 0
-117 -51 54 0
-117 51 52 0
118 -528 -529 0
118 -527 -528 -530 0
-118 528 0
-118 529 530 0
-118 527 529 0
119 47 -120 0
119 -47 -121 0
-119 -47 121 0
-119 47 120 0
120 51 -55 0
120 -51 -58 0
-120 -51 58 0
-120 51 55 0
121 51 -59 0
121 -51 -61 0
-121 -51 61 0
-121 51 59 0
122 45 -123 0
122 -45 -126 0
-122 -45 126 0
-122 45 123 0
123 47 -124 0
123 -47 -125 0
-123 -47 125 0
-123 47 124 0
124 51 -62 0
124 -51 -68 0
-124 -51 68 0
-124 51 62 0
125 51 -69 0
125 -51 -71 0
-125 -51 71 0
-125 51 69 0
126 47 -127 0
126 -47 -128 0
-126 -47 128 0
-126 47 127 0
127 51 -72 0
127 -51 -75 0
-127 -51 75 0
-127 51 72 0
128 51 -76 0
128 -51 -129 0
-128 -51 129 0
-128 51 76 0
129 -500 530 0
129 -499 -530 0
-129 500 530 0
-129 499 -530 0
-130 494 113 0
-130 495 -113 0
130 -495 -113 0
130 -494 113 0
131 132 -146 -170 0
131 132 146 -161 0
-131 -132 0
-131 -146 170 0
-131 146 161 0
132 133 136 140 -141 0
-132 141 0
-132 -133 0
-132 -140 0
-132 -136 0
-133 134 36 39 135 0
133 -135 0
133 -39 0
133 -134 0
133 -36 0
134 -503 38 0
134 503 -38 0
-134 503 38 0
-134 -503 -38 0
135 -507 8 0
135 507 -8 0
-135 507 8 0
-135 -507 -8 0
-136 111 137 -138 0
-136 111 137 44 0
136 -111 0
136 -137 0
136 -44 138 0
137 -508 9 0
137 508 -9 0
-137 508 9 0
-137 -508 -9 0
138 45 -139 0
138 -45 47 -128 0
-138 -45 -47 0
-138 45 139 0
-138 -45 128 0
139 47 -125 0
139 -47 -127 0
-139 -47 127 0
-139 47 125 0
-140 504 505 27 24 0
-140 -504 -505 -27 24 0
140 -504 27 0
140 505 -27 0
140 -24 0
140 504 -505 0
141 510 511 12 -142 0
141 -510 -511 -12 -142 0
-141 -510 12 0
-141 511 -12 0
-141 142 0
-141 510 -511 0
142 30 31 63 -143 0
-142 -30 0
-142 143 0
-142 -63 0
-142 -31 0
-143 44 -45 145 0
-143 44 45 144 0
143 -44 0
143 -45 -145 0
143 45 -144 0
144 47 -117 0
144 -47 -120 0
-144 -47 120 0
-144 47 117 0
145 47 -121 0
145 -47 -124 0
-145 -47 124 0
-145 47 121 0
146 6 -147 0
-146 -6 0
-146 147 0
147 -44 63 -155 0
147 44 63 -148 0
-147 -63 0
-147 -44 155 0
-147 44 148 0
148 45 -149 0
148 -45 -153 154 0
-148 -45 153 0
-148 45 149 0
-148 -45 -154 0
149 47 -150 0
149 -47 -152 0
-149 -47 152 0
-149 47 150 0
150 51 -151 0
150 -51 -87 0
-150 -51 87 0
-150 51 151 0
151 -527 530 0
151 -526 -530 0
-151 527 530 0
-151 526 -530 0
152 51 -88 0
152 -51 -91 0
-152 -51 91 0
-152 51 88 0
-153 47 -51 94 0
-153 47 51 92 0
153 -47 0
153 -51 -94 0
153 51 -92 0
154 -47 -51 99 0
154 -47 51 95 0
-154 47 0
-154 -51 -99 0
-154 51 -95 0
155 -45 -158 0
155 45 -156 157 0
-155 45 156 0
-155 -45 158 0
-155 45 -157 0
-156 47 -51 102 0
-156 47 51 100 0
156 -47 0
156 -51 -102 0
156 51 -100 0
157 -47 -51 106 0
157 -47 51 103 0
-157 47 0
-157 -51 -106 0
-157 51 -103 0
158 47 -160 0
158 -47 51 -159 0
-158 -47 -51 0
-158 47 160 0
-158 -47 159 0
159 -499 530 0
-159 499 0
-159 -530 0
160 51 -107 0
160 -51 -109 0
-160 -51 109 0
-160 51 107 0
-161 5 166 0
-161 -5 162 0
161 -5 -162 0
161 5 -166 0
162 79 -163 0
162 -79 -165 0
162 79 -164 0
-162 -79 165 0
-162 79 163 164 0
163 -488 113 0
-163 488 0
-163 -113 0
164 -487 -113 0
-164 487 0
-164 113 0
-165 486 113 0
-165 485 -113 0
165 -486 113 0
165 -485 -113 0
166 79 -167 0
166 -79 -169 0
166 79 -168 0
-166 -79 169 0
-166 79 167 168 0
167 -492 113 0
-167 492 0
-167 -113 0
168 -491 -113 0
-168 491 0
-168 113 0
-169 490 113 0
-169 489 -113 0
169 -490 113 0
169 -489 -113 0
170 -5 175 0
170 -171 175 0
-170 -175 0
-170 5 171 0
171 79 -172 0
171 -79 -174 0
171 79 -173 0
-171 -79 174 0
-171 79 172 173 0
172 -483 -113 0
-172 483 0
-172 113 0
173 -484 113 0
-173 484 0
-173 -113 0
-174 482 113 0
-174 481 -113 0
174 -482 113 0
174 -481 -113 0
175 -5 176 0
-175 5 0
-175 -176 0
176 79 -177 0
176 -79 -179 0
176 79 -178 0
-176 -79 179 0
-176 79 177 178 0
177 -480 113 0
-177 480 0
-177 -113 0
178 -479 -113 0
-178 479 0
-178 113 0
-179 478 113 0
-179 477 -113 0
179 -478 113 0
179 -477 -113 0
180 5 -181 0
-180 -5 0
-180 181 0
181 -79 -183 0
181 79 -182 0
-181 79 182 0
-181 -79 183 0
-182 493 113 0
-182 494 -113 0
182 -494 -113 0
182 -493 113 0
-183 495 113 0
-183 496 -113 0
183 -496 -113 0
183 -495 113 0
184 132 -146 -192 0
184 132 146 -185 0
-184 -132 0
-184 -146 192 0
-184 146 185 0
-185 5 189 0
-185 -5 186 0
185 -5 -186 0
185 5 -189 0
186 -79 -188 0
186 79 -187 0
-186 79 187 0
-186 -79 188 0
-187 489 113 0
-187 488 -113 0
187 -489 113 0
187 -488 -113 0
-188 487 113 0
-188 486 -113 0
188 -487 113 0
188 -486 -113 0
189 -79 -191 0
189 79 -190 0
-189 79 190 0
-189 -79 191 0
-190 493 113 0
-190 492 -113 0
190 -493 113 0
190 -492 -113 0
-191 491 113 0
-191 490 -113 0
191 -491 113 0
191 -490 -113 0
192 5 -193 0
192 -5 -196 0
-192 -5 196 0
-192 5 193 0
193 -79 -195 0
193 79 -194 0
-193 79 194 0
-193 -79 195 0
-194 485 113 0
-194 484 -113 0
194 -485 113 0
194 -484 -113 0
-195 483 113 0
-195 482 -113 0
195 -483 113 0
195 -482 -113 0
196 -79 -198 0
196 79 -197 0
-196 79 197 0
-196 -79 198 0
-197 481 113 0
-197 480 -113 0
197 -481 113 0
197 -480 -113 0
-198 479 113 0
-198 478 -113 0
198 -479 113 0
198 -478 -113 0
-199 200 202 222 269 0
-199 -200 -202 222 269 0
199 -222 0
199 200 -202 0
199 -269 0
199 -200 202 0
200 79 -201 0
-200 -79 0
-200 201 0
-201 468 113 0
-201 467 -113 0
201 -468 113 0
201 -467 -113 0
202 132 -212 0
202 132 146 -203 0
-202 -132 0
-202 -146 212 0
-202 203 212 0
-203 5 204 0
-203 -5 208 0
203 -5 -208 0
203 5 -204 0
-204 -79 207 0
-204 79 205 206 0
204 79 -205 0
204 -79 -207 0
204 79 -206 0
205 -468 113 0
-205 468 0
-205 -113 0
206 -469 -113 0
-206 469 0
-206 113 0
-207 470 113 0
-207 471 -113 0
207 -471 -113 0
207 -470 113 0
208 79 -209 0
208 -79 -211 0
208 79 -210 0
-208 -79 211 0
-208 79 209 210 0
209 -473 -113 0
-209 473 0
-209 113 0
210 -472 113 0
-210 472 0
-210 -113 0
-211 474 113 0
-211 475 -113 0
211 -475 -113 0
211 -474 113 0
212 -146 -213 0
-212 146 0
-212 213 0
213 -5 218 0
213 -214 218 0
-213 -218 0
-213 5 214 0
214 79 -215 0
214 -79 -217 0
214 79 -216 0
-214 -79 217 0
-214 79 215 216 0
215 -477 -113 0
-215 477 0
-215 113 0
216 -476 113 0
-216 476 0
-216 -113 0
-217 478 113 0
-217 479 -113 0
217 -479 -113 0
217 -478 113 0
218 -5 219 0
-218 5 0
-218 -219 0
219 79 -220 0
219 -79 -221 0
219 79 -177 0
-219 -79 221 0
-219 79 220 177 0
220 -481 -113 0
-220 481 0
-220 113 0
-221 482 113 0
-221 483 -113 0
221 -483 -113 0
221 -482 113 0
222 223 224 -239 0
-222 -223 0
-222 239 0
-222 -224 0
223 -467 113 0
-223 467 0
-223 -113 0
224 6 63 -235 0
224 6 63 -225 0
-224 -6 0
-224 -63 0
-224 225 235 0
-225 44 230 0
-225 -44 226 228 0
225 -44 -226 0
225 44 -230 0
225 -44 -228 0
226 45 -227 0
226 -45 47 -108 0
-226 -45 -47 0
-226 45 227 0
-226 -45 108 0
227 47 -101 0
227 -47 -105 0
-227 -47 105 0
-227 47 101 0
228 45 -229 0
228 -45 47 -77 0
-228 -45 -47 0
-228 45 229 0
-228 -45 77 0
229 47 -70 0
229 -47 -74 0
-229 -47 74 0
-229 47 70 0
-230 45 233 0
-230 -45 231 232 0
230 -45 -231 0
230 45 -233 0
230 -45 -232 0
231 47 -93 0
231 -47 -98 0
-231 -47 98 0
-231 47 93 0
232 47 -60 0
232 -47 -67 0
-232 -47 67 0
-232 47 60 0
-233 -47 234 0
-233 47 53 86 0
233 47 -53 0
233 -47 -234 0
233 47 -86 0
-234 57 90 0
234 -57 0
234 -90 0
-235 -44 236 0
-235 44 237 0
235 44 -237 0
235 -44 -236 0
-236 -45 0
-236 104 126 0
236 45 -104 0
236 45 -126 0
-237 45 238 0
-237 -45 97 123 0
237 -45 -97 0
237 45 -238 0
237 -45 -123 0
-238 89 119 0
238 -89 0
238 -119 0
-239 -132 256 0
-239 132 240 247 0
239 132 -240 0
239 -132 -256 0
239 132 -247 0
240 -5 146 -244 0
240 5 146 -241 0
-240 -146 0
-240 -5 244 0
-240 5 241 0
-241 -79 243 0
-241 79 223 242 0
241 79 -223 0
241 -79 -243 0
241 79 -242 0
242 -468 -113 0
-242 468 0
-242 113 0
-243 469 113 0
-243 470 -113 0
243 -470 -113 0
243 -469 113 0
244 79 -246 0
244 -79 -245 0
-244 -79 245 0
-244 79 246 0
-245 475 113 0
-245 474 -113 0
245 -475 113 0
245 -474 -113 0
-246 471 113 0
-246 472 -113 0
246 -472 -113 0
246 -471 113 0
247 -146 -248 0
-247 146 0
-247 248 0
248 -5 252 0
248 -249 252 0
-248 -252 0
-248 5 249 0
249 79 -251 0
249 -79 -198 0
249 79 -250 0
-249 -79 198 0
-249 79 250 251 0
250 -475 113 0
-250 475 0
-250 -113 0
251 -476 -113 0
-251 476 0
-251 113 0
252 -5 253 0
-252 5 0
-252 -253 0
253 79 -255 0
253 -79 -195 0
253 79 -254 0
-253 -79 195 0
-253 79 254 255 0
254 -480 -113 0
-254 480 0
-254 113 0
255 -479 113 0
-255 479 0
-255 -113 0
256 146 -257 0
256 -146 -264 0
-256 -146 264 0
-256 146 257 0
257 5 -258 0
257 -5 -261 0
-257 -5 261 0
-257 5 258 0
258 79 -260 0
258 -79 -188 0
258 79 -259 0
-258 -79 188 0
-258 79 259 260 0
259 -484 -113 0
-259 484 0
-259 113 0
260 -483 113 0
-260 483 0
-260 -113 0
261 79 -262 0
261 -79 -191 0
261 79 -263 0
-261 -79 191 0
-261 79 262 263 0
262 -488 -113 0
-262 488 0
-262 113 0
263 -487 113 0
-263 487 0
-263 -113 0
264 5 -265 0
264 -5 -267 0
-264 -5 267 0
-264 5 265 0
265 79 -266 0
265 -79 -182 0
-265 -79 182 0
-265 79 266 0
-266 491 113 0
-266 492 -113 0
266 -492 -113 0
266 -491 113 0
267 -79 -268 0
267 79 -183 0
-267 79 183 0
-267 -79 268 0
-268 497 113 0
-268 498 -113 0
268 -498 -113 0
268 -497 113 0
-269 270 280 -283 -284 0
-269 -270 -280 -283 -284 0
-269 270 280 283 284 0
-269 -270 -280 283 284 0
269 270 -280 0
269 -270 280 0
269 283 -284 0
269 -283 284 0
270 132 -146 -277 0
270 132 146 -271 0
-270 -132 0
-270 -146 277 0
-270 146 271 0
-271 5 274 0
-271 -5 272 0
271 -5 -272 0
271 5 -274 0
272 -79 -273 0
272 79 -169 0
-272 79 169 0
-272 -79 273 0
-273 486 113 0
-273 487 -113 0
273 -487 -113 0
273 -486 113 0
274 79 -276 0
274 -79 -275 0
-274 -79 275 0
-274 79 276 0
-275 490 113 0
-275 491 -113 0
275 -491 -113 0
275 -490 113 0
-276 494 113 0
-276 493 -113 0
276 -494 113 0
276 -493 -113 0
277 5 -278 0
277 -5 -279 0
-277 -5 279 0
-277 5 278 0
278 -79 -221 0
278 79 -165 0
-278 79 165 0
-278 -79 221 0
279 -79 -217 0
279 79 -174 0
-279 79 174 0
-279 -79 217 0
280 5 -281 0
-280 -5 0
-280 281 0
281 -79 -282 0
281 79 -130 0
-281 79 130 0
-281 -79 282 0
-282 496 113 0
-282 497 -113 0
282 -497 -113 0
282 -496 113 0
283 146 -264 0
-283 -146 0
-283 264 0
284 132 -146 -288 0
284 132 146 -285 0
-284 -132 0
-284 -146 288 0
-284 146 285 0
-285 5 287 0
-285 -5 286 0
285 -5 -286 0
285 5 -287 0
286 -79 -194 0
286 79 -188 0
-286 79 188 0
-286 -79 194 0
287 79 -191 0
287 -79 -187 0
-287 -79 187 0
-287 79 191 0
288 5 -289 0
288 -5 -290 0
-288 -5 290 0
-288 5 289 0
289 -79 -197 0
289 79 -195 0
-289 79 195 0
-289 -79 197 0
290 -79 -291 0
290 79 -198 0
-290 79 198 0
-290 -79 291 0
-291 477 113 0
-291 476 -113 0
291 -477 113 0
291 -476 -113 0
-292 293 367 373 382 0
292 -382 0
292 -293 0
292 -373 0
292 -367 0
-293 294 -327 342 0
-293 294 339 342 0
293 -342 0
293 -294 0
293 327 -339 0
-294 -295 311 0
-294 301 311 0
294 -311 0
294 295 -301 0
295 132 146 -298 0
295 132 -146 -296 0
-295 -132 0
-295 -146 296 0
-295 146 298 0
296 -5 -281 0
296 5 -297 0
-296 5 297 0
-296 -5 281 0
297 79 -275 0
297 -79 -112 0
-297 -79 112 0
-297 79 275 0
298 5 -299 0
298 -5 -300 0
-298 -5 300 0
-298 5 299 0
299 79 -221 0
299 -79 -165 0
-299 -79 165 0
-299 79 221 0
300 79 -273 0
300 -79 -169 0
-300 -79 169 0
-300 79 273 0
301 132 -302 0
-301 -132 0
-301 302 0
302 146 -303 0
302 -146 -305 0
-302 -146 305 0
-302 146 303 0
303 5 -279 0
303 -5 -304 0
-303 -5 304 0
-303 5 279 0
304 -79 -211 0
304 79 -179 0
-304 79 179 0
-304 -79 211 0
305 5 -306 0
305 -5 -309 0
-305 -5 309 0
-305 5 306 0
306 -79 -308 0
306 79 -307 0
-306 79 307 0
-306 -79 308 0
-307 474 113 0
-307 473 -113 0
307 -474 113 0
307 -473 -113 0
-308 472 113 0
-308 471 -113 0
308 -472 113 0
308 -471 -113 0
309 79 -310 0
309 -79 -201 0
-309 -79 201 0
-309 79 310 0
-310 470 113 0
-310 469 -113 0
310 -470 113 0
310 -469 -113 0
-311 -312 325 0
-311 319 -323 0
-311 319 325 0
-311 -312 -323 0
311 312 -319 0
311 323 -325 0
312 132 146 -316 0
312 132 -146 -313 0
-312 -132 0
-312 -146 313 0
-312 146 316 0
313 -5 -78 0
313 5 -314 0
-313 5 314 0
-313 -5 78 0
314 79 -163 0
314 -79 -275 0
314 79 -315 0
-314 -79 275 0
-314 79 163 315 0
315 -489 -113 0
-315 489 0
-315 113 0
316 5 -219 0
316 -5 -317 0
-316 -5 317 0
-316 5 219 0
317 79 -318 0
317 -79 -273 0
317 79 -173 0
-317 -79 273 0
-317 79 318 173 0
318 -485 -113 0
-318 485 0
-318 113 0
319 146 -320 0
-319 -146 0
-319 320 0
320 5 -176 0
320 -5 -321 0
-320 -5 321 0
-320 5 176 0
321 79 -322 0
321 -79 -307 0
321 79 -216 0
-321 -79 307 0
-321 79 322 216 0
322 -475 -113 0
-322 475 0
-322 113 0
323 5 -324 0
-323 -5 0
-323 324 0
324 -79 -310 0
324 79 -308 0
-324 79 308 0
-324 -79 310 0
325 132 -146 -316 0
325 132 146 -326 0
-325 -132 0
-325 -146 316 0
-325 146 326 0
-326 -5 214 0
-326 5 208 0
326 5 -208 0
326 -5 -214 0
327 132 146 -332 0
327 132 -146 -328 0
-327 -132 0
-327 -146 328 0
-327 146 332 0
328 -5 -181 0
328 5 -329 0
-328 5 329 0
-328 -5 181 0
329 79 -330 0
329 -79 -266 0
329 79 -331 0
-329 -79 266 0
-329 79 330 331 0
330 -489 113 0
-330 489 0
-330 -113 0
331 -490 -113 0
-331 490 0
-331 113 0
332 5 -333 0
332 -5 -336 0
-332 -5 336 0
-332 5 333 0
333 79 -335 0
333 -79 -194 0
333 79 -334 0
-333 -79 194 0
-333 79 334 335 0
334 -482 -113 0
-334 482 0
-334 113 0
335 -481 113 0
-335 481 0
-335 -113 0
336 79 -338 0
336 -79 -187 0
336 79 -337 0
-336 -79 187 0
-336 79 337 338 0
337 -486 -113 0
-337 486 0
-337 113 0
338 -485 113 0
-338 485 0
-338 -113 0
339 146 -340 0
-339 -146 0
-339 340 0
340 5 -196 0
340 -5 -341 0
-340 -5 341 0
-340 5 196 0
341 79 -291 0
341 -79 -245 0
-341 -79 245 0
-341 79 291 0
-342 -343 -347 355 0
-342 343 347 355 0
342 -355 0
342 -343 347 0
342 343 -347 0
343 5 -344 0
-343 -5 0
-343 344 0
344 -79 -346 0
344 79 -345 0
-344 79 345 0
-344 -79 346 0
-345 473 113 0
-345 472 -113 0
345 -473 113 0
345 -472 -113 0
-346 471 113 0
-346 470 -113 0
346 -471 113 0
346 -470 -113 0
347 132 -146 -332 0
347 132 146 -348 0
-347 -132 0
-347 -146 332 0
-347 146 348 0
-348 5 352 0
-348 -5 349 0
348 -5 -349 0
348 5 -352 0
349 79 -351 0
349 -79 -197 0
349 79 -350 0
-349 -79 197 0
-349 79 350 351 0
350 -478 -113 0
-350 478 0
-350 113 0
351 -477 113 0
-351 477 0
-351 -113 0
352 79 -353 0
352 -79 -291 0
352 79 -354 0
-352 -79 291 0
-352 79 353 354 0
353 -474 -113 0
-353 474 0
-353 113 0
354 -473 113 0
-354 473 0
-354 -113 0
-355 -356 -366 0
-355 360 361 0
-355 -356 361 0
-355 360 -366 0
355 356 -360 0
355 -361 366 0
356 132 -146 -298 0
356 132 146 -357 0
-356 -132 0
-356 -146 298 0
-356 146 357 0
-357 5 359 0
-357 -5 358 0
357 -5 -358 0
357 5 -359 0
358 79 -217 0
358 -79 -174 0
-358 -79 174 0
-358 79 217 0
359 79 -211 0
359 -79 -179 0
-359 -79 179 0
-359 79 211 0
360 146 -305 0
-360 -146 0
-360 305 0
361 146 -362 0
-361 -146 0
-361 362 0
362 5 -363 0
362 -5 -364 0
-362 -5 364 0
-362 5 363 0
363 -79 -345 0
363 79 -245 0
-363 79 245 0
-363 -79 345 0
364 -79 -365 0
364 79 -346 0
-364 79 346 0
-364 -79 365 0
-365 469 113 0
-365 468 -113 0
365 -469 113 0
365 -468 -113 0
366 132 -146 -257 0
366 132 146 -248 0
-366 -132 0
-366 -146 257 0
-366 146 248 0
-367 -339 368 0
-367 327 -371 0
-367 327 368 0
-367 -339 -371 0
367 -327 339 0
367 -368 371 0
368 132 146 -370 0
368 132 -146 -369 0
-368 -132 0
-368 -146 369 0
-368 146 370 0
369 5 -261 0
369 -5 -265 0
-369 -5 265 0
-369 5 261 0
370 5 -253 0
370 -5 -258 0
-370 -5 258 0
-370 5 253 0
371 146 -372 0
-371 -146 0
-371 372 0
372 5 -290 0
372 -5 -363 0
-372 -5 363 0
-372 5 290 0
-373 -375 379 0
-373 374 -380 0
-373 374 379 0
-373 -375 -380 0
373 -374 375 0
373 -379 380 0
374 5 -309 0
-374 -5 0
-374 309 0
375 132 -146 -378 0
375 132 146 -376 0
-375 -132 0
-375 -146 378 0
-375 146 376 0
376 -5 175 0
376 175 -377 0
-376 -175 0
-376 5 377 0
377 -79 -307 0
377 79 -207 0
-377 79 207 0
-377 -79 307 0
378 -5 -299 0
378 5 -358 0
-378 5 358 0
-378 -5 299 0
379 5 -364 0
-379 -5 0
-379 364 0
380 132 -146 -370 0
380 132 146 -381 0
-380 -132 0
-380 -146 370 0
-380 146 381 0
-381 -5 249 0
-381 5 244 0
381 5 -244 0
381 -5 -249 0
-382 -374 383 389 0
-382 375 383 389 0
382 -389 0
382 -383 0
382 374 -375 0
-383 -132 295 0
-383 -301 384 0
-383 295 384 0
-383 -132 -301 0
383 -295 301 0
383 132 -384 0
384 -146 -385 0
384 146 386 -387 0
384 146 -386 387 0
-384 -146 385 0
-384 146 386 387 0
-384 146 -386 -387 0
385 -5 -333 0
385 5 -349 0
-385 5 349 0
-385 -5 333 0
386 79 -365 0
-386 -79 0
-386 365 0
-387 -5 352 0
-387 5 388 0
387 -5 -352 0
387 5 -388 0
-388 79 243 0
-388 -79 246 0
388 -79 -246 0
388 79 -243 0
-389 356 390 391 0
-389 -360 390 391 0
389 -391 0
389 -390 0
389 -356 360 0
-390 -319 371 0
-390 312 -368 0
-390 -319 -368 0
-390 312 371 0
390 368 -371 0
390 -312 319 0
-391 -325 380 0
-391 323 -379 0
-391 -325 -379 0
-391 323 380 0
391 379 -380 0
391 -323 325 0
-392 393 421 446 451 0
392 -451 0
392 -393 0
392 -446 0
392 -421 0
-393 394 -406 412 0
-393 394 407 412 0
393 -412 0
393 -394 0
393 406 -407 0
-394 -361 395 0
-394 366 395 0
394 -395 0
394 361 -366 0
-395 -396 404 0
-395 397 -402 0
-395 397 404 0
-395 -396 -402 0
395 396 -397 0
395 402 -404 0
396 79 -282 0
-396 -79 0
-396 282 0
397 132 -146 -401 0
397 132 146 -398 0
-397 -132 0
-397 -146 401 0
-397 146 398 0
-398 -5 166 0
-398 5 399 0
398 -5 -166 0
398 5 -399 0
-399 -79 276 0
-399 79 400 0
399 79 -400 0
399 -79 -276 0
-400 496 113 0
-400 495 -113 0
400 -496 113 0
400 -495 -113 0
401 5 -162 0
401 -5 -171 0
-401 -5 171 0
-401 5 162 0
402 146 -403 0
-402 -146 0
-402 403 0
403 5 -341 0
403 -5 -344 0
-403 -5 344 0
-403 5 341 0
404 132 -146 -405 0
404 132 146 -385 0
-404 -132 0
-404 -146 405 0
-404 146 385 0
405 -5 -329 0
405 5 -336 0
-405 5 336 0
-405 -5 329 0
406 5 -267 0
-406 -5 0
-406 267 0
407 132 -146 -411 0
407 132 146 -408 0
-407 -132 0
-407 -146 411 0
-407 146 408 0
-408 -5 287 0
-408 5 409 0
408 -5 -287 0
408 5 -409 0
-409 -79 190 0
-409 79 410 0
409 79 -410 0
409 -79 -190 0
-410 495 113 0
-410 494 -113 0
410 -495 113 0
410 -494 -113 0
411 5 -286 0
411 -5 -289 0
-411 -5 289 0
-411 5 286 0
-412 -413 419 0
-412 415 -417 0
-412 415 419 0
-412 -413 -417 0
412 413 -415 0
412 417 -419 0
413 146 -414 0
-413 -146 0
-413 414 0
414 5 -321 0
414 -5 -324 0
-414 -5 324 0
-414 5 321 0
415 132 -146 -416 0
415 132 146 -213 0
-415 -132 0
-415 -146 416 0
-415 146 213 0
416 -5 -314 0
416 5 -317 0
-416 5 317 0
-416 -5 314 0
417 146 -418 0
-417 -146 0
-417 418 0
418 5 -304 0
418 -5 -306 0
-418 -5 306 0
-418 5 304 0
419 132 -146 -420 0
419 132 146 -378 0
-419 -132 0
-419 -146 420 0
-419 146 378 0
420 -5 -297 0
420 5 -300 0
-420 5 300 0
-420 -5 297 0
-421 -397 422 445 0
-421 396 422 445 0
421 -422 0
421 -445 0
421 -396 397 0
-422 423 428 433 439 0
422 -439 0
422 -423 0
422 -433 0
422 -428 0
-423 -425 427 0
-423 424 -426 0
-423 -425 -426 0
-423 424 427 0
423 426 -427 0
423 -424 425 0
424 146 -416 0
-424 -146 0
-424 416 0
425 132 -146 -414 0
425 132 146 -170 0
-425 -132 0
-425 -146 414 0
-425 146 170 0
426 132 -146 -362 0
426 132 146 -288 0
-426 -132 0
-426 -146 362 0
-426 146 288 0
427 132 -256 0
-427 -132 0
-427 256 0
-428 -430 431 0
-428 429 -432 0
-428 429 431 0
-428 -430 -432 0
428 -429 430 0
428 -431 432 0
429 146 -313 0
-429 -146 0
-429 313 0
430 132 146 -401 0
430 132 -146 -320 0
-430 -132 0
-430 -146 320 0
-430 146 401 0
431 146 -420 0
-431 -146 0
-431 420 0
432 132 -146 -418 0
432 132 146 -277 0
-432 -132 0
-432 -146 418 0
-432 146 277 0
-433 -435 437 0
-433 434 -438 0
-433 434 437 0
-433 -435 -438 0
433 -434 435 0
433 -437 438 0
434 146 -296 0
-434 -146 0
-434 296 0
435 132 146 -436 0
435 132 -146 -303 0
-435 -132 0
-435 -146 303 0
-435 146 436 0
436 -5 218 0
436 218 -272 0
-436 -218 0
-436 5 272 0
437 146 -369 0
-437 -146 0
-437 369 0
438 132 146 -411 0
438 132 -146 -372 0
-438 -132 0
-438 -146 372 0
-438 146 411 0
-439 -441 442 0
-439 440 -443 0
-439 440 442 0
-439 -441 -443 0
439 -440 441 0
439 -442 443 0
440 146 -405 0
-440 -146 0
-440 405 0
441 132 -146 -403 0
441 132 146 -192 0
-441 -132 0
-441 -146 403 0
-441 146 192 0
442 146 -328 0
-442 -146 0
-442 328 0
443 132 146 -444 0
443 132 -146 -340 0
-443 -132 0
-443 -146 340 0
-443 146 444 0
444 -5 252 0
444 -186 252 0
-444 -252 0
-444 5 186 0
445 -406 407 0
-445 406 0
-445 -407 0
-446 417 447 448 0
-446 -419 447 448 0
446 -448 0
446 -447 0
446 -417 419 0
-447 -404 425 0
-447 402 -424 0
-447 -404 -424 0
-447 402 425 0
447 424 -425 0
447 -402 404 0
-448 430 449 450 0
-448 -429 449 450 0
448 -450 0
448 -449 0
448 429 -430 0
449 -426 427 0
-449 426 0
-449 -427 0
-450 -434 438 0
-450 435 -437 0
-450 435 438 0
-450 -434 -437 0
450 434 -435 0
450 437 -438 0
-451 452 458 464 0
-451 -453 458 464 0
451 -464 0
451 -458 0
451 -452 453 0
452 79 -268 0
-452 -79 0
-452 268 0
453 132 -247 0
453 132 146 -454 0
-453 -132 0
-453 -146 247 0
-453 247 454 0
-454 -5 189 0
-454 5 455 0
454 -5 -189 0
454 5 -455 0
-455 -79 410 0
-455 79 456 457 0
455 79 -456 0
455 -79 -410 0
455 79 -457 0
456 -496 -113 0
-456 496 0
-456 113 0
457 -497 113 0
-457 497 0
-457 -113 0
458 224 459 -460 0
-458 -224 0
-458 460 0
-458 -459 0
459 -498 113 0
-459 498 0
-459 -113 0
-460 -132 302 0
-460 132 212 461 0
460 132 -461 0
460 -132 -302 0
460 132 -212 0
461 5 146 -462 0
461 -5 146 -274 0
-461 -146 0
-461 5 462 0
-461 -5 274 0
-462 -79 400 0
-462 79 463 459 0
462 79 -463 0
462 -79 -400 0
462 79 -459 0
463 -497 -113 0
-463 497 0
-463 113 0
-464 -431 465 466 0
-464 432 465 466 0
464 -466 0
464 -465 0
464 431 -432 0
-465 -415 453 0
-465 413 -452 0
-465 -415 -452 0
-465 413 453 0
465 452 -453 0
465 -413 415 0
-466 -440 443 0
-466 441 -442 0
-466 441 443 0
-466 -440 -442 0
466 440 -441 0
466 442 -443 0
-531 0
2 0

